p edge 30 102 15
v 3 2 5 9
v 2 15 29
v 1 12
v 2 13 16
v 2 8 25
v 2 7 17
v 1 18
v 1 30
v 2 19 27
v 1 10
v 2 4 14
v 2 22 23
v 3 11 20 21
v 2 3 6
v 4 1 24 26 28
e 1 2
e 1 8
e 1 10
e 1 13
e 1 15
e 1 16
e 1 17
e 1 22
e 2 3
e 2 5
e 2 7
e 2 8
e 3 14
e 3 16
e 3 20
e 3 26
e 3 27
e 4 9
e 4 18
e 4 20
e 4 25
e 4 26
e 4 29
e 5 6
e 5 10
e 5 11
e 5 16
e 5 25
e 5 29
e 5 30
e 6 8
e 6 22
e 6 29
e 7 19
e 7 20
e 7 22
e 7 29
e 7 30
e 8 10
e 8 20
e 8 23
e 8 26
e 9 11
e 9 12
e 9 15
e 9 16
e 9 19
e 9 20
e 9 22
e 9 26
e 10 14
e 10 17
e 10 27
e 11 24
e 11 26
e 11 29
e 12 14
e 12 15
e 12 16
e 12 21
e 12 22
e 12 23
e 12 25
e 12 26
e 13 18
e 13 23
e 14 16
e 14 17
e 14 20
e 14 26
e 15 18
e 15 19
e 15 20
e 15 22
e 15 26
e 15 30
e 16 19
e 17 22
e 17 23
e 17 29
e 18 26
e 19 20
e 19 25
e 19 29
e 20 23
e 21 23
e 21 25
e 21 26
e 21 27
e 22 24
e 22 29
e 23 24
e 23 25
e 23 27
e 23 30
e 24 27
e 24 30
e 25 27
e 25 29
e 25 30
e 27 28
e 27 29
